(set-logic LIA) (declare-var xPostExec Int) (declare-var y!22 Int) (declare-var y!M0 Int) (declare-var x!13 Int) (declare-var x!M0 Int) (declare-var J19 Bool) (declare-var J6 Bool) (declare-var J10 Bool) (declare-var yPostExec Int) (synth-fun rankingFunction!0 ((arg0 Int) (arg1 Int)) Int ((NTInt Int) (NTbool Bool)) ((NTInt Int (arg0 arg1 0 1 (- NTInt) (+ NTInt NTInt) (- NTInt NTInt) (ite NTbool NTInt NTInt))) (NTbool Bool ((not NTbool) (and NTbool NTbool) (or NTbool NTbool) (ite NTbool NTbool NTbool) (= NTInt NTInt) (< NTInt NTInt) (> NTInt NTInt))))) (constraint (=> (and (and (and (and (and (and (and (and (and (and (and (= J6 (<= (+ x!M0 y!M0) 0)) (= J10 (<= x!M0 0))) (= J19 (<= y!M0 0))) (= y!22 (+ (- 1) y!M0))) (= x!13 (+ (- 1) x!M0))) (=> (and (not J6) (and J10 J19)) (= xPostExec x!M0))) (=> (and (not J6) (and J10 J19)) (= yPostExec y!M0))) (=> (and (not J6) (and J10 (not J19))) (= xPostExec x!M0))) (=> (and (not J6) (and J10 (not J19))) (= yPostExec y!22))) (=> (and (not J6) (not J10)) (= xPostExec x!13))) (=> (and (not J6) (not J10)) (= yPostExec y!M0))) (or (and (not J6) (and J10 J19)) (and (not J6) (and J10 (not J19))) (and (not J6) (not J10)))) (and (> (rankingFunction!0 x!M0 y!M0) (rankingFunction!0 xPostExec yPostExec)) (>= (rankingFunction!0 x!M0 y!M0) 0)))) (check-synth)